
Value of objective function: 90.00000000

Actual values of the variables:
t1                              1
t2                              0
t3                              0
t4                              1
t5                              1
t6                              1
t7                              1
t8                              0
t9                              0
t10                             1
t11                             1
t12                             1
t13                             1
t14                             0
t15                             1
t16                             0
t17                             1
t18                             0
t19                             0
t20                             0
t21                             1
t22                             1
t23                             1
t24                             0
t25                             1
t26                             0
t27                             0
t28                             1
t29                             0
t30                             1
t31                             1
t32                             0
t33                             1
t34                             0
t35                             1
t36                             1
t37                             0
t38                             1
t39                             0
t40                             0
t41                             1
t42                             1
t43                             0
t44                             0
t45                             1
t46                             0
t47                             0
t48                             1
t49                             0
t50                             1
t51                             0
t52                             1
t53                             1
t54                             1
t55                             0
t56                             0
t57                             1
t58                             1
t59                             1
t60                             1
t61                             0
t62                             0
t63                             0
t64                             0
t65                             0
t66                             1
t67                             0
t68                             1
t69                             0
t70                             1
t71                             0
t72                             1
t73                             1
t74                             1
t75                             1
t76                             1
t77                             1
t78                             0
t79                             1
t80                             1
t81                             0
t82                             0
t83                             0
t84                             1
t85                             0
t86                             0
t87                             1
t88                             0
t89                             1
t90                             1
t91                             0
t92                             1
t93                             1
t94                             1
t95                             0
t96                             0
t97                             0
t98                             1
t99                             0
t100                            1
t101                            1
t102                            0
t103                            1
t104                            1
t105                            0
t106                            1
t107                            1
t108                            1
t109                            0
t110                            0
t111                            1
t112                            0
t113                            1
t114                            0
t115                            1
t116                            0
t117                            0
t118                            1
t119                            1
t120                            1
t121                            1
t122                            1
t123                            1
t124                            0
t125                            1
t126                            0
t127                            0
t128                            0
t129                            0
t130                            0
t131                            0
t132                            1
t133                            1
t134                            1
t135                            1
t136                            1
t137                            1
t138                            1
t139                            0
t140                            0
t141                            0
t142                            1
t143                            0
t144                            0
t145                            0
t146                            0
t147                            1
t148                            1
t149                            0
t150                            1
t151                            1
t152                            0
t153                            0
t154                            0
t155                            0
t156                            0
t157                            0
t158                            0
t159                            0
t160                            0
t161                            0
t162                            0
t163                            0
t164                            0
t165                            0
t166                            0
t167                            0
t168                            0
t169                            0
t170                            0
t171                            0
t172                            0
t173                            0
t174                            0
t175                            0
t176                            0
t177                            0
t178                            0
t179                            0
t180                            0
t181                            0
t182                            0
t183                            0
t184                            0
t185                            0
t186                            0
t187                            0
t188                            0
t189                            0
t190                            0
t191                            0
t192                            0
t193                            0
t194                            0
t195                            0
t196                            0
t197                            0
t198                            0
t199                            0
t200                            0
t201                            1
t202                            1
t203                            1
t204                            1
t205                            1
t206                            1
t207                            0
t208                            0
t209                            1
t210                            0
t211                            0
t212                            1
